<number of tasks>
28

<cycle time>
205

<task times>
1 70
2 59
3 33
4 6
5 1
6 27
7 17
8 62
9 31
10 53
11 21
12 19
13 108
14 52
15 5
16 8
17 97
18 8
19 47
20 67
21 17
22 8
23 3
24 21
25 107
26 3
27 2
28 72

<precedence relations>
1,2
1,3
1,4
1,5
1,8
1,19
1,21
1,22
1,23
1,24
1,26
2,6
2,17
3,28
4,28
5,28
6,7
7,18
8,9
9,10
10,11
10,12
11,15
12,13
13,14
13,16
14,28
15,28
16,28
17,28
18,28
19,20
20,28
21,28
22,28
23,28
24,25
25,28
26,27
27,28

<setup times forward>
1,3:11
1,5:4
1,19:11
1,21:4
1,23:3
1,24:11
1,26:4
2,3:11
2,5:4
2,6:4
2,9:11
2,10:11
2,11:4
2,12:11
2,13:4
2,14:4
2,15:3
2,16:3
2,17:4
2,19:11
2,20:4
2,21:4
2,23:3
2,24:11
2,25:3
2,26:4
2,27:3
3,2:11
3,4:11
3,5:7
3,6:15
3,7:7
3,8:11
3,11:7
3,13:15
3,14:7
3,15:8
3,16:8
3,17:7
3,18:8
3,20:15
3,21:7
3,22:11
3,23:8
3,25:8
3,26:15
3,27:8
3,28:8
4,3:11
4,5:4
4,6:4
4,7:4
4,9:11
4,10:11
4,11:4
4,12:11
4,13:4
4,14:4
4,15:3
4,16:3
4,17:4
4,18:3
4,19:11
4,20:4
4,21:4
4,23:3
4,24:11
4,25:3
4,26:4
4,27:3
4,28:3
5,2:4
5,3:7
5,4:4
5,6:8
5,8:4
5,9:7
5,10:7
5,12:7
5,13:8
5,15:1
5,16:1
5,18:1
5,19:7
5,20:8
5,22:4
5,23:1
5,24:7
5,25:1
5,26:8
5,27:1
5,28:1
6,3:15
6,4:4
6,5:8
6,7:8
6,8:4
6,9:15
6,10:15
6,11:8
6,12:15
6,14:8
6,15:7
6,16:7
6,17:8
6,19:15
6,21:8
6,22:4
6,23:7
6,24:15
6,25:7
6,27:7
7,3:7
7,4:4
7,8:4
7,9:7
7,10:7
7,12:7
7,13:8
7,15:1
7,16:1
7,18:1
7,19:7
7,20:8
7,22:4
7,23:1
7,24:7
7,25:1
7,26:8
7,27:1
8,3:11
8,5:4
8,6:4
8,7:4
8,9:11
8,17:4
8,18:3
8,19:11
8,20:4
8,21:4
8,23:3
8,24:11
8,25:3
8,26:4
8,27:3
9,2:11
9,4:11
9,5:7
9,6:15
9,7:7
9,17:7
9,18:8
9,20:15
9,21:7
9,22:11
9,23:8
9,25:8
9,26:15
9,27:8
10,2:11
10,4:11
10,5:7
10,6:15
10,7:7
10,11:7
10,17:7
10,18:8
10,20:15
10,21:7
10,22:11
10,23:8
10,25:8
10,26:15
10,27:8
11,2:4
11,3:7
11,4:4
11,6:8
11,12:7
11,13:8
11,15:1
11,16:1
11,18:1
11,19:7
11,20:8
11,22:4
11,23:1
11,24:7
11,25:1
11,26:8
11,27:1
12,2:11
12,4:11
12,5:7
12,6:15
12,7:7
12,11:7
12,13:15
12,15:8
12,17:7
12,18:8
12,20:15
12,21:7
12,22:11
12,23:8
12,25:8
12,26:15
12,27:8
13,2:4
13,3:15
13,4:4
13,5:8
13,7:8
13,11:8
13,14:8
13,15:7
13,16:7
13,17:8
13,18:7
13,19:15
13,21:8
13,22:4
13,23:7
13,24:15
13,25:7
13,27:7
14,2:4
14,3:7
14,4:4
14,6:8
14,15:1
14,16:1
14,18:1
14,19:7
14,20:8
14,22:4
14,23:1
14,24:7
14,25:1
14,26:8
14,27:1
14,28:1
15,2:3
15,3:8
15,4:3
15,5:1
15,6:7
15,7:1
15,12:8
15,13:7
15,14:1
15,17:1
15,19:8
15,20:7
15,21:1
15,22:3
15,24:8
15,26:7
16,2:3
16,3:8
16,4:3
16,5:1
16,6:7
16,7:1
16,11:1
16,14:1
16,17:1
16,19:8
16,20:7
16,21:1
16,22:3
16,24:8
16,26:7
17,3:7
17,4:4
17,6:8
17,8:4
17,9:7
17,10:7
17,12:7
17,13:8
17,15:1
17,16:1
17,18:1
17,19:7
17,20:8
17,22:4
17,23:1
17,24:7
17,25:1
17,26:8
17,27:1
17,28:1
18,3:8
18,4:3
18,5:1
18,8:3
18,9:8
18,10:8
18,11:1
18,12:8
18,13:7
18,14:1
18,17:1
18,19:8
18,20:7
18,21:1
18,22:3
18,24:8
18,26:7
19,2:11
19,4:11
19,5:7
19,6:15
19,7:7
19,8:11
19,11:7
19,13:15
19,14:7
19,15:8
19,16:8
19,17:7
19,18:8
19,20:15
19,21:7
19,22:11
19,23:8
19,25:8
19,26:15
19,27:8
20,2:4
20,3:15
20,4:4
20,5:8
20,7:8
20,8:4
20,9:15
20,10:15
20,11:8
20,12:15
20,14:8
20,15:7
20,16:7
20,17:8
20,18:7
20,21:8
20,22:4
20,23:7
20,24:15
20,25:7
20,27:7
20,28:7
21,2:4
21,3:7
21,4:4
21,6:8
21,8:4
21,9:7
21,10:7
21,12:7
21,13:8
21,15:1
21,16:1
21,18:1
21,19:7
21,20:8
21,22:4
21,23:1
21,24:7
21,25:1
21,26:8
21,27:1
21,28:1
22,3:11
22,5:4
22,6:4
22,7:4
22,9:11
22,10:11
22,11:4
22,12:11
22,13:4
22,14:4
22,15:3
22,16:3
22,17:4
22,18:3
22,19:11
22,20:4
22,21:4
22,23:3
22,24:11
22,25:3
22,26:4
22,27:3
22,28:3
23,2:3
23,3:8
23,4:3
23,5:1
23,6:7
23,7:1
23,8:3
23,9:8
23,10:8
23,11:1
23,12:8
23,13:7
23,14:1
23,17:1
23,19:8
23,20:7
23,21:1
23,22:3
23,24:8
23,26:7
24,2:11
24,4:11
24,5:7
24,6:15
24,7:7
24,8:11
24,11:7
24,13:15
24,14:7
24,15:8
24,16:8
24,17:7
24,18:8
24,20:15
24,21:7
24,22:11
24,23:8
24,25:8
24,26:15
24,27:8
25,2:3
25,3:8
25,4:3
25,5:1
25,6:7
25,7:1
25,8:3
25,9:8
25,10:8
25,11:1
25,12:8
25,13:7
25,14:1
25,17:1
25,19:8
25,20:7
25,21:1
25,22:3
25,26:7
26,2:4
26,3:15
26,4:4
26,5:8
26,7:8
26,8:4
26,9:15
26,10:15
26,11:8
26,12:15
26,14:8
26,15:7
26,16:7
26,17:8
26,18:7
26,19:15
26,21:8
26,22:4
26,23:7
26,24:15
26,25:7
26,27:7
27,2:3
27,3:8
27,4:3
27,5:1
27,6:7
27,7:1
27,8:3
27,9:8
27,10:8
27,11:1
27,12:8
27,13:7
27,14:1
27,17:1
27,19:8
27,20:7
27,21:1
27,22:3
27,24:8

<setup times backward>
2,13:4
2,20:4
2,26:4
3,1:11
3,2:11
3,4:11
3,5:7
3,6:15
3,7:7
3,8:11
3,11:7
3,13:15
3,14:7
3,15:8
3,16:8
3,17:7
3,18:8
3,20:15
3,21:7
3,22:11
3,23:8
3,25:8
3,26:15
3,27:8
4,6:4
4,13:4
4,20:4
4,26:4
5,1:4
5,2:4
5,4:4
5,6:8
5,8:4
5,13:8
5,15:1
5,16:1
5,18:1
5,20:8
5,22:4
5,23:1
5,25:1
5,26:8
5,27:1
7,1:4
7,2:4
7,4:4
7,6:8
7,8:4
7,13:8
7,15:1
7,16:1
7,20:8
7,22:4
7,23:1
7,25:1
7,26:8
7,27:1
8,6:4
8,20:4
8,26:4
9,1:11
9,2:11
9,4:11
9,5:7
9,6:15
9,7:7
9,8:11
9,17:7
9,18:8
9,20:15
9,21:7
9,22:11
9,23:8
9,25:8
9,26:15
9,27:8
10,1:11
10,2:11
10,4:11
10,5:7
10,6:15
10,7:7
10,8:11
10,17:7
10,18:8
10,20:15
10,21:7
10,22:11
10,23:8
10,25:8
10,26:15
10,27:8
11,1:4
11,2:4
11,4:4
11,6:8
11,8:4
11,13:8
11,16:1
11,18:1
11,20:8
11,22:4
11,23:1
11,25:1
11,26:8
11,27:1
12,1:11
12,2:11
12,4:11
12,5:7
12,6:15
12,7:7
12,8:11
12,11:7
12,15:8
12,17:7
12,18:8
12,20:15
12,21:7
12,22:11
12,23:8
12,25:8
12,26:15
12,27:8
14,1:4
14,2:4
14,4:4
14,6:8
14,8:4
14,13:8
14,15:1
14,16:1
14,18:1
14,20:8
14,22:4
14,23:1
14,25:1
14,26:8
14,27:1
15,1:3
15,2:3
15,4:3
15,6:7
15,8:3
15,13:7
15,20:7
15,22:3
15,26:7
16,1:3
16,2:3
16,4:3
16,6:7
16,8:3
16,13:7
16,20:7
16,22:3
16,26:7
17,1:4
17,2:4
17,4:4
17,6:8
17,8:4
17,13:8
17,15:1
17,16:1
17,18:1
17,20:8
17,22:4
17,23:1
17,25:1
17,26:8
17,27:1
18,1:3
18,2:3
18,4:3
18,6:7
18,8:3
18,13:7
18,20:7
18,22:3
18,26:7
19,1:11
19,2:11
19,4:11
19,5:7
19,6:15
19,7:7
19,8:11
19,11:7
19,13:15
19,14:7
19,15:8
19,16:8
19,17:7
19,18:8
19,21:7
19,22:11
19,23:8
19,25:8
19,26:15
19,27:8
21,1:4
21,2:4
21,4:4
21,6:8
21,8:4
21,13:8
21,15:1
21,16:1
21,18:1
21,20:8
21,22:4
21,23:1
21,25:1
21,26:8
21,27:1
22,6:4
22,13:4
22,20:4
22,26:4
23,1:3
23,2:3
23,4:3
23,6:7
23,8:3
23,13:7
23,20:7
23,22:3
23,26:7
24,1:11
24,2:11
24,4:11
24,5:7
24,6:15
24,7:7
24,8:11
24,11:7
24,13:15
24,14:7
24,15:8
24,16:8
24,17:7
24,18:8
24,20:15
24,21:7
24,22:11
24,23:8
24,26:15
24,27:8
25,1:3
25,2:3
25,4:3
25,6:7
25,8:3
25,13:7
25,20:7
25,22:3
25,26:7
27,1:3
27,2:3
27,4:3
27,6:7
27,8:3
27,13:7
27,20:7
27,22:3
27,26:7
28,1:3
28,2:3
28,4:3
28,6:7
28,8:3
28,13:7
28,20:7
28,22:3
28,26:7

<end>

<optimal SALBP-1 value>
5


<rand seed>
467321153

<Lower Bounds>
Lm1=5
Lms1=5
Lm2=2
Lm3=3
Lm4=5
Best=5

<Optimal Stations (Iterations: 10)>
7
